
  32    4
  10   10   10   10

   0   0   0   0   0  18 2 6 7 10 18 19 20 21 22 23 24 25 26 27 28 29 30 31 
   9  10  10  10  10   3 17 16 3 
   3  10  10  10  10   3 14 13 4 
   1  10  10  10  10   1 5 
   6  10  10  10  10   1 8 
   2  10  10  10  10   1 9 
   3  10  10  10  10   1 9 
   8  10  10  10  10   1 11 
   3  10  10  10  10   1 12 
   3  10  10  10  10   1 15 
   2  10  10  10  10   1 32
   8  10  10  10  10   1 32
   2  10  10  10  10   1 32
   1  10  10  10  10   1 32
   5  10  10  10  10   1 32
   4  10  10  10  10   1 32
   3  10  10  10  10   1 32
   3  10  10  10  10   1 32
   4  10  10  10  10   1 32
   2  10  10  10  10   1 32
   3  10  10  10  10   1 32
   5  10  10  10  10   1 32
  10  10  10  10  10   1 32
  10  10  10  10  10   1 32
   8  10  10  10  10   1 32
   2  10  10  10  10   1 32
   9  10  10  10  10   1 32
  10  10  10  10  10   1 32
   6  10  10  10  10   1 32
   7  10  10  10  10   1 32
   6  10  10  10  10   1 32
   0   0   0   0   0   0 
